<number of tasks>
20

<cycle time>
1000

<order strength>
0,805


<task times>
1 520
2 516
3 222
4 129
5 179
6 45
7 208
8 127
9 139
10 235
11 150
12 130
13 227
14 184
15 190
16 195
17 519
18 238
19 147
20 450

<precedence relations>
1,4
1,5
2,3
3,6
4,6
4,7
5,6
6,8
6,9
6,10
7,8
7,9
7,10
8,11
9,11
10,11
11,12
11,13
11,14
13,15
15,16
15,17
15,18
16,19
17,20

<end>
